25
6	9	10	15	16	22	0
3	4	8	15	24	25	0
2	4	6	7	9	11	12	13	14	21	23	24	25	0
2	3	9	15	18	19	20	23	0
6	7	10	11	13	14	16	17	21	23	24	25	0
1	3	5	7	9	10	12	13	15	21	22	0
3	5	6	9	12	14	20	22	24	0
2	9	10	11	14	17	18	20	21	22	25	0
1	3	4	6	7	8	10	11	14	18	21	22	0
1	5	6	8	9	11	12	19	21	0
3	5	8	9	10	12	14	18	23	0
3	6	7	10	11	14	16	18	21	22	0
3	5	6	14	17	19	21	23	25	0
3	5	7	8	9	11	12	13	20	22	24	25	0
1	2	4	6	16	17	18	0
1	5	12	15	18	23	24	25	0
5	8	13	15	18	19	20	21	23	25	0
4	8	9	11	12	15	16	17	19	0
4	10	13	17	18	22	23	24	25	0
4	7	8	14	17	25	0
3	5	6	8	9	10	12	13	17	24	25	0
1	6	7	8	9	12	14	19	24	25	0
3	4	5	11	13	16	17	19	24	0
2	3	5	7	14	16	19	21	22	23	25	0
2	3	5	8	13	14	16	17	19	20	21	22	24	0


comments:
random graph
nodes 25
edges 120
rng seed 34 
